DIMACS_lns/graph-1000-634.col
p edge 1000 1781
e 1 283
e 1 542
e 1 840
e 1 286
e 1 88
e 2 508
e 2 227
e 2 123
e 2 393
e 2 905
e 2 853
e 2 50
e 2 769
e 3 168
e 3 590
e 3 616
e 3 277
e 4 690
e 4 569
e 4 910
e 5 531
e 5 278
e 5 514
e 5 950
e 6 719
e 6 234
e 6 221
e 6 854
e 7 584
e 7 755
e 7 198
e 7 291
e 8 424
e 8 556
e 8 756
e 9 997
e 9 237
e 9 299
e 10 295
e 10 548
e 10 475
e 10 743
e 11 843
e 11 706
e 11 536
e 12 881
e 12 966
e 12 31
e 13 461
e 13 173
e 13 529
e 14 59
e 14 29
e 14 253
e 17 700
e 17 812
e 17 442
e 18 605
e 18 253
e 18 717
e 18 460
e 19 344
e 19 138
e 19 956
e 19 416
e 19 897
e 19 743
e 19 147
e 21 625
e 21 199
e 21 396
e 21 378
e 21 266
e 21 252
e 21 182
e 21 289
e 24 774
e 24 802
e 24 180
e 24 611
e 24 307
e 25 201
e 25 631
e 25 47
e 25 913
e 25 749
e 25 722
e 25 345
e 25 364
e 25 35
e 26 408
e 26 110
e 26 852
e 26 139
e 27 756
e 27 868
e 27 425
e 28 224
e 28 730
e 28 193
e 29 762
e 29 246
e 29 969
e 29 61
e 29 551
e 29 386
e 30 94
e 30 42
e 30 124
e 30 237
e 30 635
e 30 591
e 31 955
e 31 919
e 31 944
e 31 915
e 31 38
e 31 942
e 31 442
e 32 485
e 32 127
e 32 811
e 32 498
e 32 483
e 32 929
e 32 235
e 33 248
e 33 829
e 33 428
e 33 82
e 34 291
e 34 238
e 34 907
e 35 756
e 35 977
e 35 864
e 35 509
e 38 295
e 38 853
e 38 556
e 41 935
e 41 479
e 41 841
e 41 629
e 41 452
e 41 811
e 41 43
e 42 811
e 42 339
e 42 480
e 42 948
e 42 460
e 42 527
e 43 783
e 43 747
e 43 457
e 44 916
e 44 465
e 44 91
e 45 992
e 45 876
e 45 346
e 45 90
e 45 522
e 45 650
e 45 864
e 46 874
e 46 517
e 46 882
e 46 847
e 47 755
e 47 527
e 47 984
e 47 128
e 49 905
e 49 443
e 49 622
e 49 806
e 49 864
e 50 169
e 50 536
e 50 734
e 50 687
e 50 569
e 51 874
e 51 836
e 51 671
e 51 518
e 51 322
e 52 825
e 52 828
e 52 354
e 52 551
e 52 100
e 52 949
e 52 883
e 54 425
e 54 812
e 54 157
e 54 817
e 54 156
e 54 697
e 55 73
e 55 152
e 55 791
e 55 514
e 55 567
e 55 816
e 55 258
e 55 355
e 55 768
e 57 378
e 57 265
e 57 717
e 57 998
e 57 774
e 57 876
e 57 237
e 59 943
e 59 305
e 61 236
e 61 543
e 61 935
e 62 343
e 62 934
e 62 545
e 64 443
e 64 547
e 64 865
e 64 278
e 65 269
e 65 879
e 65 932
e 66 481
e 66 734
e 66 795
e 67 322
e 67 548
e 67 653
e 67 283
e 67 285
e 69 471
e 69 460
e 69 246
e 70 506
e 70 816
e 70 193
e 71 553
e 71 862
e 71 467
e 71 762
e 71 442
e 71 823
e 71 727
e 71 581
e 71 952
e 72 812
e 72 908
e 72 219
e 73 764
e 73 253
e 73 290
e 76 385
e 76 466
e 76 183
e 77 457
e 77 645
e 77 944
e 79 800
e 79 420
e 79 996
e 81 680
e 81 907
e 81 600
e 81 240
e 81 304
e 82 458
e 82 509
e 82 852
e 82 477
e 83 489
e 83 589
e 83 941
e 85 712
e 85 552
e 85 590
e 87 741
e 87 588
e 87 201
e 88 455
e 88 679
e 88 310
e 88 957
e 88 623
e 89 870
e 89 706
e 89 185
e 89 904
e 90 625
e 90 557
e 91 222
e 91 405
e 94 793
e 94 721
e 94 158
e 94 876
e 94 635
e 94 475
e 96 206
e 96 836
e 96 286
e 97 756
e 97 746
e 97 288
e 97 638
e 97 714
e 97 305
e 99 788
e 99 521
e 99 405
e 99 337
e 100 424
e 100 955
e 100 395
e 101 631
e 101 566
e 101 149
e 102 213
e 102 118
e 102 265
e 103 303
e 103 414
e 103 242
e 104 331
e 104 579
e 104 178
e 104 865
e 104 853
e 105 748
e 105 438
e 105 229
e 105 986
e 109 591
e 109 949
e 109 727
e 109 615
e 109 933
e 109 272
e 109 669
e 109 438
e 109 200
e 110 194
e 110 630
e 118 527
e 118 185
e 118 234
e 118 702
e 121 543
e 121 236
e 121 572
e 121 799
e 121 219
e 121 346
e 121 196
e 121 228
e 121 823
e 123 533
e 123 215
e 123 772
e 123 511
e 124 808
e 124 836
e 124 960
e 124 650
e 124 692
e 124 289
e 125 514
e 125 278
e 125 177
e 126 315
e 126 298
e 126 685
e 127 410
e 127 358
e 127 897
e 127 663
e 128 183
e 128 676
e 128 791
e 128 522
e 128 352
e 129 477
e 129 504
e 129 566
e 130 821
e 130 309
e 130 708
e 132 553
e 132 388
e 132 681
e 132 279
e 132 304
e 132 604
e 132 160
e 132 864
e 133 853
e 133 146
e 133 775
e 134 207
e 134 503
e 134 413
e 137 256
e 137 490
e 137 840
e 137 445
e 138 622
e 138 274
e 139 454
e 139 271
e 139 440
e 139 476
e 139 389
e 140 917
e 140 157
e 140 812
e 140 298
e 141 914
e 141 987
e 141 154
e 141 398
e 141 385
e 141 213
e 143 262
e 143 164
e 143 774
e 145 760
e 145 683
e 145 355
e 145 594
e 145 275
e 146 477
e 146 891
e 146 520
e 146 467
e 147 651
e 147 381
e 147 884
e 148 547
e 148 563
e 148 372
e 148 851
e 148 528
e 149 424
e 149 541
e 149 524
e 149 357
e 149 386
e 149 163
e 150 739
e 150 552
e 150 698
e 152 409
e 152 662
e 152 989
e 152 674
e 152 649
e 153 642
e 153 628
e 153 649
e 153 350
e 154 648
e 154 883
e 154 566
e 154 206
e 154 806
e 154 841
e 154 964
e 156 908
e 156 472
e 156 827
e 157 308
e 158 907
e 158 442
e 158 708
e 158 985
e 158 459
e 158 556
e 158 725
e 160 496
e 160 358
e 160 405
e 160 379
e 160 596
e 160 702
e 160 461
e 160 183
e 163 452
e 163 707
e 163 458
e 163 599
e 164 860
e 164 647
e 164 687
e 164 913
e 164 342
e 165 992
e 165 647
e 165 811
e 165 707
e 166 933
e 166 701
e 166 252
e 167 701
e 167 372
e 167 265
e 167 733
e 168 409
e 168 999
e 168 361
e 169 349
e 169 284
e 169 746
e 170 693
e 170 206
e 170 260
e 170 454
e 171 499
e 171 650
e 171 750
e 171 879
e 171 339
e 171 335
e 173 702
e 173 623
e 173 863
e 173 996
e 173 238
e 174 687
e 174 479
e 174 968
e 176 189
e 176 772
e 176 916
e 177 193
e 177 545
e 177 386
e 177 182
e 177 916
e 177 590
e 177 629
e 178 459
e 178 600
e 178 256
e 178 550
e 179 371
e 179 683
e 179 391
e 180 274
e 180 821
e 181 400
e 181 379
e 181 357
e 181 649
e 181 863
e 182 783
e 182 222
e 182 248
e 182 958
e 183 843
e 183 297
e 183 541
e 183 295
e 183 429
e 183 822
e 183 831
e 184 796
e 184 414
e 184 342
e 185 436
e 185 573
e 186 786
e 186 816
e 186 382
e 186 791
e 186 494
e 187 560
e 187 679
e 187 674
e 187 428
e 187 743
e 188 228
e 188 503
e 188 406
e 188 499
e 188 765
e 189 663
e 189 877
e 193 916
e 193 361
e 193 825
e 193 325
e 194 636
e 194 518
e 194 716
e 194 584
e 196 742
e 196 963
e 196 797
e 196 947
e 196 772
e 197 687
e 197 714
e 197 381
e 197 260
e 197 528
e 198 950
e 198 900
e 198 739
e 199 511
e 199 586
e 199 533
e 199 737
e 199 707
e 200 361
e 200 830
e 200 297
e 201 662
e 201 224
e 201 381
e 201 890
e 203 277
e 203 466
e 203 475
e 204 465
e 204 863
e 204 601
e 205 901
e 205 946
e 205 863
e 206 968
e 206 664
e 207 499
e 207 627
e 207 912
e 208 791
e 208 645
e 208 896
e 210 564
e 210 572
e 210 581
e 210 297
e 213 489
e 213 601
e 213 680
e 213 457
e 215 361
e 215 498
e 219 521
e 221 535
e 221 362
e 221 355
e 221 364
e 221 372
e 222 299
e 222 946
e 222 782
e 222 411
e 223 942
e 223 362
e 223 695
e 223 458
e 223 802
e 224 717
e 224 955
e 224 892
e 225 598
e 225 910
e 225 985
e 226 679
e 226 358
e 226 932
e 226 460
e 227 900
e 227 998
e 227 381
e 228 540
e 228 524
e 228 569
e 228 344
e 228 659
e 228 853
e 229 995
e 229 718
e 229 710
e 229 831
e 229 370
e 232 591
e 232 307
e 232 324
e 232 863
e 232 443
e 232 466
e 233 442
e 233 630
e 233 272
e 233 371
e 233 640
e 234 795
e 234 551
e 234 337
e 234 772
e 234 1000
e 235 855
e 235 330
e 236 796
e 236 326
e 237 539
e 238 320
e 238 783
e 238 724
e 238 452
e 239 874
e 239 564
e 239 563
e 239 498
e 239 642
e 240 714
e 240 818
e 240 775
e 241 727
e 241 672
e 241 994
e 242 710
e 242 700
e 242 972
e 244 504
e 244 855
e 244 747
e 246 547
e 248 720
e 248 655
e 251 680
e 251 467
e 251 934
e 251 340
e 251 924
e 252 932
e 252 949
e 252 496
e 252 751
e 253 818
e 255 594
e 255 944
e 255 674
e 255 277
e 256 471
e 256 346
e 256 522
e 256 267
e 258 958
e 258 326
e 258 668
e 258 447
e 259 790
e 259 794
e 259 779
e 259 292
e 259 907
e 260 1000
e 260 372
e 260 707
e 261 623
e 261 768
e 261 642
e 262 475
e 262 479
e 262 370
e 263 385
e 263 753
e 263 331
e 265 324
e 266 560
e 266 928
e 267 395
e 267 808
e 267 513
e 267 320
e 267 576
e 267 327
e 269 812
e 269 584
e 269 362
e 269 980
e 269 834
e 270 906
e 270 548
e 270 291
e 270 493
e 271 799
e 271 767
e 272 409
e 272 780
e 272 991
e 274 946
e 274 398
e 275 598
e 275 615
e 277 755
e 277 681
e 277 698
e 277 793
e 277 463
e 277 517
e 278 977
e 278 591
e 279 350
e 279 392
e 279 769
e 280 702
e 280 738
e 280 544
e 280 325
e 282 788
e 282 495
e 282 377
e 282 573
e 283 601
e 283 826
e 284 775
e 284 761
e 285 854
e 285 645
e 285 832
e 285 355
e 286 959
e 286 662
e 286 829
e 287 588
e 287 852
e 287 785
e 287 957
e 288 536
e 288 841
e 288 938
e 288 289
e 289 995
e 289 635
e 289 446
e 290 572
e 290 840
e 291 605
e 291 854
e 292 884
e 292 964
e 292 711
e 293 462
e 293 431
e 293 741
e 293 729
e 295 668
e 295 670
e 295 876
e 295 834
e 295 800
e 296 894
e 296 914
e 296 340
e 297 618
e 297 879
e 297 941
e 297 364
e 297 718
e 297 907
e 297 985
e 298 383
e 299 550
e 299 560
e 303 497
e 303 892
e 304 493
e 304 849
e 305 307
e 307 795
e 308 340
e 308 405
e 309 511
e 309 580
e 309 746
e 309 795
e 309 616
e 310 521
e 310 527
e 311 568
e 311 540
e 311 885
e 311 972
e 311 941
e 311 455
e 311 599
e 312 873
e 312 943
e 312 507
e 313 475
e 313 912
e 313 816
e 313 323
e 314 860
e 314 710
e 314 539
e 314 552
e 314 440
e 314 611
e 314 420
e 314 558
e 315 563
e 315 788
e 315 529
e 315 539
e 315 669
e 315 778
e 316 658
e 316 866
e 316 644
e 316 524
e 316 724
e 316 529
e 316 916
e 320 371
e 322 984
e 323 699
e 323 728
e 323 825
e 324 849
e 324 851
e 324 748
e 325 669
e 325 999
e 326 425
e 326 755
e 326 445
e 326 489
e 326 728
e 327 770
e 327 596
e 327 947
e 327 686
e 330 801
e 330 840
e 331 723
e 331 621
e 331 628
e 331 575
e 333 640
e 333 620
e 333 929
e 333 806
e 335 399
e 335 770
e 335 391
e 337 928
e 337 559
e 337 573
e 339 765
e 340 410
e 340 481
e 340 341
e 340 551
e 341 843
e 341 680
e 342 475
e 342 663
e 342 879
e 343 746
e 343 906
e 343 872
e 343 847
e 344 767
e 344 579
e 344 877
e 345 466
e 345 761
e 345 756
e 346 583
e 349 547
e 349 762
e 349 761
e 349 632
e 350 596
e 352 591
e 352 755
e 353 872
e 353 904
e 353 750
e 354 618
e 354 448
e 354 620
e 355 864
e 355 559
e 355 497
e 357 432
e 357 520
e 357 528
e 357 570
e 358 839
e 358 603
e 361 462
e 361 542
e 361 695
e 361 670
e 363 951
e 363 638
e 363 642
e 364 564
e 364 686
e 364 827
e 367 668
e 367 422
e 367 700
e 369 600
e 369 403
e 369 920
e 369 979
e 370 717
e 370 524
e 370 725
e 371 476
e 371 801
e 372 528
e 372 730
e 372 589
e 375 956
e 375 746
e 375 984
e 377 394
e 377 416
e 378 410
e 378 462
e 378 488
e 378 716
e 379 443
e 379 811
e 381 895
e 381 739
e 382 485
e 382 880
e 383 863
e 383 684
e 383 412
e 385 595
e 385 932
e 386 737
e 386 631
e 387 630
e 387 588
e 387 738
e 388 899
e 388 839
e 389 414
e 389 716
e 389 533
e 389 551
e 389 811
e 391 627
e 391 839
e 392 463
e 392 926
e 393 949
e 393 741
e 393 860
e 393 483
e 393 742
e 394 494
e 394 884
e 395 986
e 395 879
e 395 752
e 395 1000
e 396 409
e 396 761
e 398 916
e 398 778
e 398 752
e 399 921
e 399 881
e 400 698
e 400 602
e 400 989
e 402 587
e 402 933
e 402 513
e 402 896
e 402 849
e 403 545
e 403 922
e 404 738
e 404 845
e 404 536
e 405 750
e 405 688
e 405 607
e 405 557
e 405 985
e 406 860
e 406 493
e 407 823
e 407 443
e 407 832
e 407 489
e 407 442
e 408 452
e 408 827
e 408 783
e 409 861
e 409 458
e 409 932
e 409 756
e 410 951
e 410 816
e 411 897
e 411 571
e 411 921
e 412 943
e 412 999
e 412 668
e 412 414
e 413 720
e 413 836
e 414 425
e 416 703
e 416 481
e 416 508
e 416 906
e 416 591
e 416 755
e 416 431
e 416 904
e 420 611
e 420 707
e 420 511
e 420 940
e 422 843
e 422 466
e 422 643
e 424 997
e 424 630
e 425 683
e 425 861
e 428 797
e 428 817
e 428 541
e 428 601
e 428 900
e 429 597
e 429 632
e 431 490
e 431 530
e 432 595
e 432 600
e 432 638
e 436 862
e 436 558
e 436 448
e 438 851
e 438 494
e 438 726
e 438 570
e 438 692
e 438 504
e 440 676
e 442 592
e 442 864
e 442 632
e 443 452
e 443 920
e 443 522
e 445 462
e 446 877
e 446 747
e 446 557
e 446 880
e 447 879
e 447 609
e 447 476
e 447 631
e 447 951
e 448 812
e 448 817
e 448 834
e 452 651
e 452 737
e 454 701
e 454 655
e 454 845
e 454 503
e 454 952
e 454 494
e 455 488
e 458 995
e 458 778
e 458 951
e 458 681
e 459 711
e 460 797
e 460 499
e 460 568
e 461 467
e 461 466
e 463 475
e 464 777
e 464 964
e 464 547
e 464 883
e 464 562
e 464 527
e 465 855
e 466 876
e 466 468
e 466 877
e 466 513
e 468 576
e 468 669
e 469 845
e 469 977
e 469 602
e 471 693
e 472 495
e 472 950
e 475 964
e 475 642
e 475 663
e 475 811
e 475 703
e 476 928
e 476 479
e 476 906
e 476 951
e 476 756
e 476 854
e 477 966
e 477 640
e 477 879
e 477 550
e 477 724
e 479 615
e 479 654
e 479 650
e 479 832
e 480 802
e 480 701
e 480 855
e 480 481
e 480 997
e 483 627
e 483 678
e 485 565
e 485 775
e 485 840
e 485 569
e 488 710
e 488 943
e 488 490
e 489 760
e 489 671
e 493 499
e 493 517
e 493 770
e 493 999
e 493 917
e 493 895
e 494 590
e 494 748
e 494 841
e 495 863
e 495 638
e 495 737
e 495 915
e 496 991
e 496 920
e 496 749
e 496 706
e 497 716
e 497 882
e 497 570
e 498 752
e 498 600
e 498 933
e 499 996
e 499 813
e 499 712
e 500 686
e 500 992
e 500 885
e 503 629
e 503 541
e 504 583
e 504 737
e 504 962
e 504 880
e 504 685
e 505 921
e 505 744
e 505 553
e 505 678
e 506 540
e 506 791
e 507 630
e 507 547
e 507 573
e 507 692
e 507 598
e 508 919
e 508 985
e 508 717
e 508 866
e 509 541
e 509 816
e 509 806
e 509 960
e 511 966
e 511 605
e 511 926
e 511 621
e 512 710
e 512 793
e 512 558
e 512 552
e 513 623
e 514 837
e 514 759
e 514 986
e 517 630
e 517 932
e 517 969
e 518 679
e 518 669
e 518 621
e 518 674
e 520 860
e 522 874
e 522 839
e 522 785
e 523 752
e 523 542
e 523 655
e 524 899
e 524 782
e 525 781
e 525 767
e 525 786
e 527 734
e 527 600
e 528 796
e 528 837
e 528 658
e 528 963
e 529 686
e 529 624
e 529 777
e 529 725
e 530 695
e 530 759
e 530 531
e 530 892
e 531 685
e 531 764
e 531 812
e 532 989
e 532 611
e 532 897
e 533 940
e 535 783
e 535 845
e 535 553
e 535 800
e 536 575
e 536 900
e 536 772
e 536 925
e 536 908
e 539 630
e 539 750
e 539 709
e 540 544
e 540 797
e 541 634
e 541 998
e 542 728
e 542 921
e 542 968
e 543 755
e 543 579
e 543 604
e 543 779
e 543 912
e 544 624
e 544 751
e 545 783
e 547 693
e 547 690
e 548 707
e 550 700
e 550 811
e 550 851
e 551 775
e 552 734
e 552 566
e 552 852
e 553 640
e 556 926
e 557 940
e 557 842
e 557 772
e 558 699
e 559 890
e 559 942
e 560 750
e 562 799
e 562 905
e 563 825
e 564 592
e 565 946
e 565 955
e 565 717
e 566 600
e 566 571
e 567 699
e 567 616
e 568 823
e 569 607
e 569 865
e 570 617
e 571 786
e 571 987
e 571 893
e 572 877
e 575 759
e 576 842
e 576 640
e 576 797
e 576 684
e 576 680
e 579 944
e 579 1000
e 579 651
e 580 719
e 580 685
e 581 772
e 583 658
e 583 709
e 584 890
e 584 826
e 586 779
e 586 854
e 586 989
e 586 993
e 587 648
e 587 680
e 588 681
e 588 895
e 588 821
e 588 884
e 589 715
e 589 895
e 590 670
e 590 999
e 590 764
e 591 873
e 591 774
e 591 782
e 592 916
e 592 800
e 594 688
e 594 991
e 595 662
e 597 629
e 597 666
e 597 760
e 599 616
e 599 836
e 599 710
e 600 994
e 600 761
e 601 942
e 602 775
e 602 893
e 602 788
e 602 622
e 602 664
e 602 645
e 603 700
e 603 962
e 603 761
e 603 905
e 604 762
e 604 782
e 605 768
e 607 1000
e 607 760
e 607 793
e 609 993
e 609 851
e 609 799
e 611 722
e 611 901
e 611 973
e 611 894
e 615 744
e 617 648
e 617 922
e 618 962
e 618 634
e 620 777
e 620 872
e 621 634
e 621 715
e 621 837
e 621 765
e 623 987
e 623 692
e 623 717
e 624 669
e 624 650
e 625 847
e 627 768
e 628 772
e 629 723
e 631 781
e 634 721
e 635 738
e 636 842
e 636 796
e 636 881
e 636 669
e 638 943
e 638 698
e 642 868
e 643 664
e 643 768
e 644 758
e 644 861
e 647 912
e 647 794
e 647 670
e 649 852
e 649 821
e 649 872
e 650 703
e 651 901
e 653 849
e 653 865
e 654 758
e 654 799
e 654 944
e 655 925
e 656 786
e 656 933
e 656 942
e 658 728
e 659 987
e 659 701
e 662 762
e 662 771
e 662 862
e 663 877
e 666 864
e 666 823
e 668 688
e 668 828
e 668 790
e 668 707
e 669 712
e 669 678
e 670 693
e 671 746
e 672 881
e 672 853
e 672 926
e 672 962
e 672 786
e 674 718
e 674 800
e 674 895
e 676 744
e 678 936
e 678 925
e 679 751
e 680 968
e 680 860
e 681 843
e 681 885
e 681 984
e 683 839
e 683 742
e 684 993
e 685 788
e 685 946
e 685 855
e 685 901
e 687 755
e 690 771
e 690 879
e 692 837
e 693 914
e 695 976
e 697 892
e 697 738
e 697 944
e 698 827
e 699 711
e 699 985
e 699 947
e 702 917
e 702 870
e 703 992
e 703 811
e 707 951
e 707 829
e 707 765
e 707 969
e 708 924
e 709 944
e 710 940
e 710 893
e 710 868
e 712 881
e 712 765
e 715 733
e 716 790
e 718 840
e 718 843
e 719 826
e 719 841
e 719 987
e 720 770
e 720 942
e 720 943
e 720 788
e 720 891
e 721 894
e 721 841
e 722 897
e 723 916
e 723 973
e 725 950
e 726 928
e 726 760
e 726 786
e 727 894
e 727 786
e 728 900
e 728 752
e 728 957
e 729 989
e 729 738
e 730 788
e 730 949
e 733 896
e 734 781
e 742 760
e 742 828
e 742 822
e 747 924
e 748 966
e 749 940
e 751 942
e 753 986
e 753 767
e 755 863
e 758 851
e 758 910
e 760 762
e 762 980
e 764 951
e 765 901
e 768 960
e 769 870
e 771 910
e 771 830
e 772 976
e 775 917
e 775 816
e 777 938
e 777 858
e 779 829
e 780 785
e 780 800
e 780 866
e 781 986
e 782 959
e 783 942
e 785 836
e 786 825
e 790 904
e 791 915
e 794 833
e 795 897
e 795 885
e 796 891
e 796 822
e 800 992
e 801 862
e 801 802
e 801 948
e 808 938
e 812 976
e 813 861
e 813 946
e 817 949
e 817 957
e 818 950
e 822 855
e 827 868
e 828 899
e 828 830
e 829 936
e 829 858
e 830 879
e 830 904
e 830 960
e 831 845
e 832 947
e 833 914
e 833 868
e 833 858
e 834 883
e 836 955
e 836 994
e 836 977
e 840 979
e 840 897
e 841 989
e 842 995
e 842 845
e 845 924
e 845 877
e 847 908
e 853 906
e 853 952
e 854 963
e 855 977
e 855 890
e 858 985
e 860 862
e 860 935
e 863 956
e 863 904
e 864 1000
e 865 876
e 866 950
e 866 891
e 868 997
e 870 913
e 872 936
e 873 994
e 877 957
e 879 997
e 880 904
e 882 976
e 884 934
e 895 947
e 895 941
e 895 964
e 897 956
e 899 929
e 899 919
e 912 922
e 913 925
e 916 948
e 917 979
e 919 925
e 938 996
e 938 969
e 938 960
e 941 979
e 942 991
e 942 976
e 944 958
e 959 994
e 960 972
e 963 973
e 980 991
