txt_Ins/graph-1000-634.txt
n 1000
e 0 282
e 0 541
e 0 839
e 0 285
e 0 87
e 1 507
e 1 226
e 1 122
e 1 392
e 1 904
e 1 852
e 1 49
e 1 768
e 2 167
e 2 589
e 2 615
e 2 276
e 3 689
e 3 568
e 3 909
e 4 530
e 4 277
e 4 513
e 4 949
e 5 718
e 5 233
e 5 220
e 5 853
e 6 583
e 6 754
e 6 197
e 6 290
e 7 423
e 7 555
e 7 755
e 8 996
e 8 236
e 8 298
e 9 294
e 9 547
e 9 474
e 9 742
e 10 842
e 10 705
e 10 535
e 11 880
e 11 965
e 11 30
e 12 460
e 12 172
e 12 528
e 13 58
e 13 28
e 13 252
e 16 699
e 16 811
e 16 441
e 17 604
e 17 252
e 17 716
e 17 459
e 18 343
e 18 137
e 18 955
e 18 415
e 18 896
e 18 742
e 18 146
e 20 624
e 20 198
e 20 395
e 20 377
e 20 265
e 20 251
e 20 181
e 20 288
e 23 773
e 23 801
e 23 179
e 23 610
e 23 306
e 24 200
e 24 630
e 24 46
e 24 912
e 24 748
e 24 721
e 24 344
e 24 363
e 24 34
e 25 407
e 25 109
e 25 851
e 25 138
e 26 755
e 26 867
e 26 424
e 27 223
e 27 729
e 27 192
e 28 761
e 28 245
e 28 968
e 28 60
e 28 550
e 28 385
e 29 93
e 29 41
e 29 123
e 29 236
e 29 634
e 29 590
e 30 954
e 30 918
e 30 943
e 30 914
e 30 37
e 30 941
e 30 441
e 31 484
e 31 126
e 31 810
e 31 497
e 31 482
e 31 928
e 31 234
e 32 247
e 32 828
e 32 427
e 32 81
e 33 290
e 33 237
e 33 906
e 34 755
e 34 976
e 34 863
e 34 508
e 37 294
e 37 852
e 37 555
e 40 934
e 40 478
e 40 840
e 40 628
e 40 451
e 40 810
e 40 42
e 41 810
e 41 338
e 41 479
e 41 947
e 41 459
e 41 526
e 42 782
e 42 746
e 42 456
e 43 915
e 43 464
e 43 90
e 44 991
e 44 875
e 44 345
e 44 89
e 44 521
e 44 649
e 44 863
e 45 873
e 45 516
e 45 881
e 45 846
e 46 754
e 46 526
e 46 983
e 46 127
e 48 904
e 48 442
e 48 621
e 48 805
e 48 863
e 49 168
e 49 535
e 49 733
e 49 686
e 49 568
e 50 873
e 50 835
e 50 670
e 50 517
e 50 321
e 51 824
e 51 827
e 51 353
e 51 550
e 51 99
e 51 948
e 51 882
e 53 424
e 53 811
e 53 156
e 53 816
e 53 155
e 53 696
e 54 72
e 54 151
e 54 790
e 54 513
e 54 566
e 54 815
e 54 257
e 54 354
e 54 767
e 56 377
e 56 264
e 56 716
e 56 997
e 56 773
e 56 875
e 56 236
e 58 942
e 58 304
e 60 235
e 60 542
e 60 934
e 61 342
e 61 933
e 61 544
e 63 442
e 63 546
e 63 864
e 63 277
e 64 268
e 64 878
e 64 931
e 65 480
e 65 733
e 65 794
e 66 321
e 66 547
e 66 652
e 66 282
e 66 284
e 68 470
e 68 459
e 68 245
e 69 505
e 69 815
e 69 192
e 70 552
e 70 861
e 70 466
e 70 761
e 70 441
e 70 822
e 70 726
e 70 580
e 70 951
e 71 811
e 71 907
e 71 218
e 72 763
e 72 252
e 72 289
e 75 384
e 75 465
e 75 182
e 76 456
e 76 644
e 76 943
e 78 799
e 78 419
e 78 995
e 80 679
e 80 906
e 80 599
e 80 239
e 80 303
e 81 457
e 81 508
e 81 851
e 81 476
e 82 488
e 82 588
e 82 940
e 84 711
e 84 551
e 84 589
e 86 740
e 86 587
e 86 200
e 87 454
e 87 678
e 87 309
e 87 956
e 87 622
e 88 869
e 88 705
e 88 184
e 88 903
e 89 624
e 89 556
e 90 221
e 90 404
e 93 792
e 93 720
e 93 157
e 93 875
e 93 634
e 93 474
e 95 205
e 95 835
e 95 285
e 96 755
e 96 745
e 96 287
e 96 637
e 96 713
e 96 304
e 98 787
e 98 520
e 98 404
e 98 336
e 99 423
e 99 954
e 99 394
e 100 630
e 100 565
e 100 148
e 101 212
e 101 117
e 101 264
e 102 302
e 102 413
e 102 241
e 103 330
e 103 578
e 103 177
e 103 864
e 103 852
e 104 747
e 104 437
e 104 228
e 104 985
e 108 590
e 108 948
e 108 726
e 108 614
e 108 932
e 108 271
e 108 668
e 108 437
e 108 199
e 109 193
e 109 629
e 117 526
e 117 184
e 117 233
e 117 701
e 120 542
e 120 235
e 120 571
e 120 798
e 120 218
e 120 345
e 120 195
e 120 227
e 120 822
e 122 532
e 122 214
e 122 771
e 122 510
e 123 807
e 123 835
e 123 959
e 123 649
e 123 691
e 123 288
e 124 513
e 124 277
e 124 176
e 125 314
e 125 297
e 125 684
e 126 409
e 126 357
e 126 896
e 126 662
e 127 182
e 127 675
e 127 790
e 127 521
e 127 351
e 128 476
e 128 503
e 128 565
e 129 820
e 129 308
e 129 707
e 131 552
e 131 387
e 131 680
e 131 278
e 131 303
e 131 603
e 131 159
e 131 863
e 132 852
e 132 145
e 132 774
e 133 206
e 133 502
e 133 412
e 136 255
e 136 489
e 136 839
e 136 444
e 137 621
e 137 273
e 138 453
e 138 270
e 138 439
e 138 475
e 138 388
e 139 916
e 139 156
e 139 811
e 139 297
e 140 913
e 140 986
e 140 153
e 140 397
e 140 384
e 140 212
e 142 261
e 142 163
e 142 773
e 144 759
e 144 682
e 144 354
e 144 593
e 144 274
e 145 476
e 145 890
e 145 519
e 145 466
e 146 650
e 146 380
e 146 883
e 147 546
e 147 562
e 147 371
e 147 850
e 147 527
e 148 423
e 148 540
e 148 523
e 148 356
e 148 385
e 148 162
e 149 738
e 149 551
e 149 697
e 151 408
e 151 661
e 151 988
e 151 673
e 151 648
e 152 641
e 152 627
e 152 648
e 152 349
e 153 647
e 153 882
e 153 565
e 153 205
e 153 805
e 153 840
e 153 963
e 155 907
e 155 471
e 155 826
e 156 307
e 157 906
e 157 441
e 157 707
e 157 984
e 157 458
e 157 555
e 157 724
e 159 495
e 159 357
e 159 404
e 159 378
e 159 595
e 159 701
e 159 460
e 159 182
e 162 451
e 162 706
e 162 457
e 162 598
e 163 859
e 163 646
e 163 686
e 163 912
e 163 341
e 164 991
e 164 646
e 164 810
e 164 706
e 165 932
e 165 700
e 165 251
e 166 700
e 166 371
e 166 264
e 166 732
e 167 408
e 167 998
e 167 360
e 168 348
e 168 283
e 168 745
e 169 692
e 169 205
e 169 259
e 169 453
e 170 498
e 170 649
e 170 749
e 170 878
e 170 338
e 170 334
e 172 701
e 172 622
e 172 862
e 172 995
e 172 237
e 173 686
e 173 478
e 173 967
e 175 188
e 175 771
e 175 915
e 176 192
e 176 544
e 176 385
e 176 181
e 176 915
e 176 589
e 176 628
e 177 458
e 177 599
e 177 255
e 177 549
e 178 370
e 178 682
e 178 390
e 179 273
e 179 820
e 180 399
e 180 378
e 180 356
e 180 648
e 180 862
e 181 782
e 181 221
e 181 247
e 181 957
e 182 842
e 182 296
e 182 540
e 182 294
e 182 428
e 182 821
e 182 830
e 183 795
e 183 413
e 183 341
e 184 435
e 184 572
e 185 785
e 185 815
e 185 381
e 185 790
e 185 493
e 186 559
e 186 678
e 186 673
e 186 427
e 186 742
e 187 227
e 187 502
e 187 405
e 187 498
e 187 764
e 188 662
e 188 876
e 192 915
e 192 360
e 192 824
e 192 324
e 193 635
e 193 517
e 193 715
e 193 583
e 195 741
e 195 962
e 195 796
e 195 946
e 195 771
e 196 686
e 196 713
e 196 380
e 196 259
e 196 527
e 197 949
e 197 899
e 197 738
e 198 510
e 198 585
e 198 532
e 198 736
e 198 706
e 199 360
e 199 829
e 199 296
e 200 661
e 200 223
e 200 380
e 200 889
e 202 276
e 202 465
e 202 474
e 203 464
e 203 862
e 203 600
e 204 900
e 204 945
e 204 862
e 205 967
e 205 663
e 206 498
e 206 626
e 206 911
e 207 790
e 207 644
e 207 895
e 209 563
e 209 571
e 209 580
e 209 296
e 212 488
e 212 600
e 212 679
e 212 456
e 214 360
e 214 497
e 218 520
e 220 534
e 220 361
e 220 354
e 220 363
e 220 371
e 221 298
e 221 945
e 221 781
e 221 410
e 222 941
e 222 361
e 222 694
e 222 457
e 222 801
e 223 716
e 223 954
e 223 891
e 224 597
e 224 909
e 224 984
e 225 678
e 225 357
e 225 931
e 225 459
e 226 899
e 226 997
e 226 380
e 227 539
e 227 523
e 227 568
e 227 343
e 227 658
e 227 852
e 228 994
e 228 717
e 228 709
e 228 830
e 228 369
e 231 590
e 231 306
e 231 323
e 231 862
e 231 442
e 231 465
e 232 441
e 232 629
e 232 271
e 232 370
e 232 639
e 233 794
e 233 550
e 233 336
e 233 771
e 233 999
e 234 854
e 234 329
e 235 795
e 235 325
e 236 538
e 237 319
e 237 782
e 237 723
e 237 451
e 238 873
e 238 563
e 238 562
e 238 497
e 238 641
e 239 713
e 239 817
e 239 774
e 240 726
e 240 671
e 240 993
e 241 709
e 241 699
e 241 971
e 243 503
e 243 854
e 243 746
e 245 546
e 247 719
e 247 654
e 250 679
e 250 466
e 250 933
e 250 339
e 250 923
e 251 931
e 251 948
e 251 495
e 251 750
e 252 817
e 254 593
e 254 943
e 254 673
e 254 276
e 255 470
e 255 345
e 255 521
e 255 266
e 257 957
e 257 325
e 257 667
e 257 446
e 258 789
e 258 793
e 258 778
e 258 291
e 258 906
e 259 999
e 259 371
e 259 706
e 260 622
e 260 767
e 260 641
e 261 474
e 261 478
e 261 369
e 262 384
e 262 752
e 262 330
e 264 323
e 265 559
e 265 927
e 266 394
e 266 807
e 266 512
e 266 319
e 266 575
e 266 326
e 268 811
e 268 583
e 268 361
e 268 979
e 268 833
e 269 905
e 269 547
e 269 290
e 269 492
e 270 798
e 270 766
e 271 408
e 271 779
e 271 990
e 273 945
e 273 397
e 274 597
e 274 614
e 276 754
e 276 680
e 276 697
e 276 792
e 276 462
e 276 516
e 277 976
e 277 590
e 278 349
e 278 391
e 278 768
e 279 701
e 279 737
e 279 543
e 279 324
e 281 787
e 281 494
e 281 376
e 281 572
e 282 600
e 282 825
e 283 774
e 283 760
e 284 853
e 284 644
e 284 831
e 284 354
e 285 958
e 285 661
e 285 828
e 286 587
e 286 851
e 286 784
e 286 956
e 287 535
e 287 840
e 287 937
e 287 288
e 288 994
e 288 634
e 288 445
e 289 571
e 289 839
e 290 604
e 290 853
e 291 883
e 291 963
e 291 710
e 292 461
e 292 430
e 292 740
e 292 728
e 294 667
e 294 669
e 294 875
e 294 833
e 294 799
e 295 893
e 295 913
e 295 339
e 296 617
e 296 878
e 296 940
e 296 363
e 296 717
e 296 906
e 296 984
e 297 382
e 298 549
e 298 559
e 302 496
e 302 891
e 303 492
e 303 848
e 304 306
e 306 794
e 307 339
e 307 404
e 308 510
e 308 579
e 308 745
e 308 794
e 308 615
e 309 520
e 309 526
e 310 567
e 310 539
e 310 884
e 310 971
e 310 940
e 310 454
e 310 598
e 311 872
e 311 942
e 311 506
e 312 474
e 312 911
e 312 815
e 312 322
e 313 859
e 313 709
e 313 538
e 313 551
e 313 439
e 313 610
e 313 419
e 313 557
e 314 562
e 314 787
e 314 528
e 314 538
e 314 668
e 314 777
e 315 657
e 315 865
e 315 643
e 315 523
e 315 723
e 315 528
e 315 915
e 319 370
e 321 983
e 322 698
e 322 727
e 322 824
e 323 848
e 323 850
e 323 747
e 324 668
e 324 998
e 325 424
e 325 754
e 325 444
e 325 488
e 325 727
e 326 769
e 326 595
e 326 946
e 326 685
e 329 800
e 329 839
e 330 722
e 330 620
e 330 627
e 330 574
e 332 639
e 332 619
e 332 928
e 332 805
e 334 398
e 334 769
e 334 390
e 336 927
e 336 558
e 336 572
e 338 764
e 339 409
e 339 480
e 339 340
e 339 550
e 340 842
e 340 679
e 341 474
e 341 662
e 341 878
e 342 745
e 342 905
e 342 871
e 342 846
e 343 766
e 343 578
e 343 876
e 344 465
e 344 760
e 344 755
e 345 582
e 348 546
e 348 761
e 348 760
e 348 631
e 349 595
e 351 590
e 351 754
e 352 871
e 352 903
e 352 749
e 353 617
e 353 447
e 353 619
e 354 863
e 354 558
e 354 496
e 356 431
e 356 519
e 356 527
e 356 569
e 357 838
e 357 602
e 360 461
e 360 541
e 360 694
e 360 669
e 362 950
e 362 637
e 362 641
e 363 563
e 363 685
e 363 826
e 366 667
e 366 421
e 366 699
e 368 599
e 368 402
e 368 919
e 368 978
e 369 716
e 369 523
e 369 724
e 370 475
e 370 800
e 371 527
e 371 729
e 371 588
e 374 955
e 374 745
e 374 983
e 376 393
e 376 415
e 377 409
e 377 461
e 377 487
e 377 715
e 378 442
e 378 810
e 380 894
e 380 738
e 381 484
e 381 879
e 382 862
e 382 683
e 382 411
e 384 594
e 384 931
e 385 736
e 385 630
e 386 629
e 386 587
e 386 737
e 387 898
e 387 838
e 388 413
e 388 715
e 388 532
e 388 550
e 388 810
e 390 626
e 390 838
e 391 462
e 391 925
e 392 948
e 392 740
e 392 859
e 392 482
e 392 741
e 393 493
e 393 883
e 394 985
e 394 878
e 394 751
e 394 999
e 395 408
e 395 760
e 397 915
e 397 777
e 397 751
e 398 920
e 398 880
e 399 697
e 399 601
e 399 988
e 401 586
e 401 932
e 401 512
e 401 895
e 401 848
e 402 544
e 402 921
e 403 737
e 403 844
e 403 535
e 404 749
e 404 687
e 404 606
e 404 556
e 404 984
e 405 859
e 405 492
e 406 822
e 406 442
e 406 831
e 406 488
e 406 441
e 407 451
e 407 826
e 407 782
e 408 860
e 408 457
e 408 931
e 408 755
e 409 950
e 409 815
e 410 896
e 410 570
e 410 920
e 411 942
e 411 998
e 411 667
e 411 413
e 412 719
e 412 835
e 413 424
e 415 702
e 415 480
e 415 507
e 415 905
e 415 590
e 415 754
e 415 430
e 415 903
e 419 610
e 419 706
e 419 510
e 419 939
e 421 842
e 421 465
e 421 642
e 423 996
e 423 629
e 424 682
e 424 860
e 427 796
e 427 816
e 427 540
e 427 600
e 427 899
e 428 596
e 428 631
e 430 489
e 430 529
e 431 594
e 431 599
e 431 637
e 435 861
e 435 557
e 435 447
e 437 850
e 437 493
e 437 725
e 437 569
e 437 691
e 437 503
e 439 675
e 441 591
e 441 863
e 441 631
e 442 451
e 442 919
e 442 521
e 444 461
e 445 876
e 445 746
e 445 556
e 445 879
e 446 878
e 446 608
e 446 475
e 446 630
e 446 950
e 447 811
e 447 816
e 447 833
e 451 650
e 451 736
e 453 700
e 453 654
e 453 844
e 453 502
e 453 951
e 453 493
e 454 487
e 457 994
e 457 777
e 457 950
e 457 680
e 458 710
e 459 796
e 459 498
e 459 567
e 460 466
e 460 465
e 462 474
e 463 776
e 463 963
e 463 546
e 463 882
e 463 561
e 463 526
e 464 854
e 465 875
e 465 467
e 465 876
e 465 512
e 467 575
e 467 668
e 468 844
e 468 976
e 468 601
e 470 692
e 471 494
e 471 949
e 474 963
e 474 641
e 474 662
e 474 810
e 474 702
e 475 927
e 475 478
e 475 905
e 475 950
e 475 755
e 475 853
e 476 965
e 476 639
e 476 878
e 476 549
e 476 723
e 478 614
e 478 653
e 478 649
e 478 831
e 479 801
e 479 700
e 479 854
e 479 480
e 479 996
e 482 626
e 482 677
e 484 564
e 484 774
e 484 839
e 484 568
e 487 709
e 487 942
e 487 489
e 488 759
e 488 670
e 492 498
e 492 516
e 492 769
e 492 998
e 492 916
e 492 894
e 493 589
e 493 747
e 493 840
e 494 862
e 494 637
e 494 736
e 494 914
e 495 990
e 495 919
e 495 748
e 495 705
e 496 715
e 496 881
e 496 569
e 497 751
e 497 599
e 497 932
e 498 995
e 498 812
e 498 711
e 499 685
e 499 991
e 499 884
e 502 628
e 502 540
e 503 582
e 503 736
e 503 961
e 503 879
e 503 684
e 504 920
e 504 743
e 504 552
e 504 677
e 505 539
e 505 790
e 506 629
e 506 546
e 506 572
e 506 691
e 506 597
e 507 918
e 507 984
e 507 716
e 507 865
e 508 540
e 508 815
e 508 805
e 508 959
e 510 965
e 510 604
e 510 925
e 510 620
e 511 709
e 511 792
e 511 557
e 511 551
e 512 622
e 513 836
e 513 758
e 513 985
e 516 629
e 516 931
e 516 968
e 517 678
e 517 668
e 517 620
e 517 673
e 519 859
e 521 873
e 521 838
e 521 784
e 522 751
e 522 541
e 522 654
e 523 898
e 523 781
e 524 780
e 524 766
e 524 785
e 526 733
e 526 599
e 527 795
e 527 836
e 527 657
e 527 962
e 528 685
e 528 623
e 528 776
e 528 724
e 529 694
e 529 758
e 529 530
e 529 891
e 530 684
e 530 763
e 530 811
e 531 988
e 531 610
e 531 896
e 532 939
e 534 782
e 534 844
e 534 552
e 534 799
e 535 574
e 535 899
e 535 771
e 535 924
e 535 907
e 538 629
e 538 749
e 538 708
e 539 543
e 539 796
e 540 633
e 540 997
e 541 727
e 541 920
e 541 967
e 542 754
e 542 578
e 542 603
e 542 778
e 542 911
e 543 623
e 543 750
e 544 782
e 546 692
e 546 689
e 547 706
e 549 699
e 549 810
e 549 850
e 550 774
e 551 733
e 551 565
e 551 851
e 552 639
e 555 925
e 556 939
e 556 841
e 556 771
e 557 698
e 558 889
e 558 941
e 559 749
e 561 798
e 561 904
e 562 824
e 563 591
e 564 945
e 564 954
e 564 716
e 565 599
e 565 570
e 566 698
e 566 615
e 567 822
e 568 606
e 568 864
e 569 616
e 570 785
e 570 986
e 570 892
e 571 876
e 574 758
e 575 841
e 575 639
e 575 796
e 575 683
e 575 679
e 578 943
e 578 999
e 578 650
e 579 718
e 579 684
e 580 771
e 582 657
e 582 708
e 583 889
e 583 825
e 585 778
e 585 853
e 585 988
e 585 992
e 586 647
e 586 679
e 587 680
e 587 894
e 587 820
e 587 883
e 588 714
e 588 894
e 589 669
e 589 998
e 589 763
e 590 872
e 590 773
e 590 781
e 591 915
e 591 799
e 593 687
e 593 990
e 594 661
e 596 628
e 596 665
e 596 759
e 598 615
e 598 835
e 598 709
e 599 993
e 599 760
e 600 941
e 601 774
e 601 892
e 601 787
e 601 621
e 601 663
e 601 644
e 602 699
e 602 961
e 602 760
e 602 904
e 603 761
e 603 781
e 604 767
e 606 999
e 606 759
e 606 792
e 608 992
e 608 850
e 608 798
e 610 721
e 610 900
e 610 972
e 610 893
e 614 743
e 616 647
e 616 921
e 617 961
e 617 633
e 619 776
e 619 871
e 620 633
e 620 714
e 620 836
e 620 764
e 622 986
e 622 691
e 622 716
e 623 668
e 623 649
e 624 846
e 626 767
e 627 771
e 628 722
e 630 780
e 633 720
e 634 737
e 635 841
e 635 795
e 635 880
e 635 668
e 637 942
e 637 697
e 641 867
e 642 663
e 642 767
e 643 757
e 643 860
e 646 911
e 646 793
e 646 669
e 648 851
e 648 820
e 648 871
e 649 702
e 650 900
e 652 848
e 652 864
e 653 757
e 653 798
e 653 943
e 654 924
e 655 785
e 655 932
e 655 941
e 657 727
e 658 986
e 658 700
e 661 761
e 661 770
e 661 861
e 662 876
e 665 863
e 665 822
e 667 687
e 667 827
e 667 789
e 667 706
e 668 711
e 668 677
e 669 692
e 670 745
e 671 880
e 671 852
e 671 925
e 671 961
e 671 785
e 673 717
e 673 799
e 673 894
e 675 743
e 677 935
e 677 924
e 678 750
e 679 967
e 679 859
e 680 842
e 680 884
e 680 983
e 682 838
e 682 741
e 683 992
e 684 787
e 684 945
e 684 854
e 684 900
e 686 754
e 689 770
e 689 878
e 691 836
e 692 913
e 694 975
e 696 891
e 696 737
e 696 943
e 697 826
e 698 710
e 698 984
e 698 946
e 701 916
e 701 869
e 702 991
e 702 810
e 706 950
e 706 828
e 706 764
e 706 968
e 707 923
e 708 943
e 709 939
e 709 892
e 709 867
e 711 880
e 711 764
e 714 732
e 715 789
e 717 839
e 717 842
e 718 825
e 718 840
e 718 986
e 719 769
e 719 941
e 719 942
e 719 787
e 719 890
e 720 893
e 720 840
e 721 896
e 722 915
e 722 972
e 724 949
e 725 927
e 725 759
e 725 785
e 726 893
e 726 785
e 727 899
e 727 751
e 727 956
e 728 988
e 728 737
e 729 787
e 729 948
e 732 895
e 733 780
e 741 759
e 741 827
e 741 821
e 746 923
e 747 965
e 748 939
e 750 941
e 752 985
e 752 766
e 754 862
e 757 850
e 757 909
e 759 761
e 761 979
e 763 950
e 764 900
e 767 959
e 768 869
e 770 909
e 770 829
e 771 975
e 774 916
e 774 815
e 776 937
e 776 857
e 778 828
e 779 784
e 779 799
e 779 865
e 780 985
e 781 958
e 782 941
e 784 835
e 785 824
e 789 903
e 790 914
e 793 832
e 794 896
e 794 884
e 795 890
e 795 821
e 799 991
e 800 861
e 800 801
e 800 947
e 807 937
e 811 975
e 812 860
e 812 945
e 816 948
e 816 956
e 817 949
e 821 854
e 826 867
e 827 898
e 827 829
e 828 935
e 828 857
e 829 878
e 829 903
e 829 959
e 830 844
e 831 946
e 832 913
e 832 867
e 832 857
e 833 882
e 835 954
e 835 993
e 835 976
e 839 978
e 839 896
e 840 988
e 841 994
e 841 844
e 844 923
e 844 876
e 846 907
e 852 905
e 852 951
e 853 962
e 854 976
e 854 889
e 857 984
e 859 861
e 859 934
e 862 955
e 862 903
e 863 999
e 864 875
e 865 949
e 865 890
e 867 996
e 869 912
e 871 935
e 872 993
e 876 956
e 878 996
e 879 903
e 881 975
e 883 933
e 894 946
e 894 940
e 894 963
e 896 955
e 898 928
e 898 918
e 911 921
e 912 924
e 915 947
e 916 978
e 918 924
e 937 995
e 937 968
e 937 959
e 940 978
e 941 990
e 941 975
e 943 957
e 958 993
e 959 971
e 962 972
e 979 990
